tsp/opt_tours/pw.opt.tour
NAME : pw.opt.tour
COMMENT : Optimal tour for pw.tsp (44.5979605563)
TYPE : Tour
DIMENSON : 10
TOUR_SECTION
1
2
10
9
7
8
4
6
5
3
-1
EOF
